NAME 
ROWS
 N  OBJ
 L  R0      
 E  R1      
 E  R2      
 E  R3      
 E  R4      
 E  R5      
 E  R6      
 E  R7      
 E  R8      
 E  R9      
 E  R10     
 E  R11     
 E  R12     
 E  R13     
 E  R14     
 E  R15     
 E  R16     
 E  R17     
 E  R18     
 E  R19     
 E  R20     
 E  R21     
 E  R22     
 E  R23     
 E  R24     
 E  R25     
 E  R26     
 E  R27     
 E  R28     
 E  R29     
 E  R30     
COLUMNS
    MARKER    'MARKER'                 'INTORG'
    I0(3)     OBJ       -163
    I0(3)     R0        193
    I0(3)     R1        17
    I0(3)     R30       1
    I1(3)     OBJ       35
    I1(3)     R0        -193
    I1(3)     R2        3
    I1(3)     R30       1
    I2(3)     OBJ       196
    I2(3)     R0        119
    I2(3)     R3        6
    I2(3)     R30       1
    I3(3)     OBJ       -128
    I3(3)     R0        117
    I3(3)     R4        2
    I3(3)     R30       1
    I4(3)     OBJ       55
    I4(3)     R0        -178
    I4(3)     R5        4
    I4(3)     R30       1
    I5(3)     OBJ       193
    I5(3)     R0        113
    I5(3)     R6        7
    I5(3)     R30       1
    I6(3)     OBJ       3
    I6(3)     R0        -199
    I6(3)     R7        9
    I6(3)     R30       1
    I7(3)     OBJ       -67
    I7(3)     R0        184
    I7(3)     R8        6
    I7(3)     R30       1
    I8(3)     OBJ       135
    I8(3)     R0        116
    I8(3)     R9        13
    I8(3)     R30       1
    I9(3)     OBJ       -56
    I9(3)     R0        9
    I9(3)     R10       16
    I9(3)     R30       1
    I10(3)    OBJ       -71
    I10(3)    R0        64
    I10(3)    R11       -1
    I10(3)    R30       1
    I11(3)    OBJ       -129
    I11(3)    R0        16
    I11(3)    R12       19
    I11(3)    R30       1
    I12(3)    OBJ       37
    I12(3)    R0        -59
    I12(3)    R13       11
    I12(3)    R30       1
    I13(3)    OBJ       190
    I13(3)    R0        -85
    I13(3)    R14       12
    I13(3)    R30       1
    I14(3)    OBJ       81
    I14(3)    R0        -79
    I14(3)    R15       11
    I14(3)    R30       1
    I15(3)    OBJ       -22
    I15(3)    R0        -170
    I15(3)    R16       3
    I15(3)    R30       1
    I16(3)    OBJ       76
    I16(3)    R0        -129
    I16(3)    R17       12
    I16(3)    R30       1
    I17(3)    OBJ       54
    I17(3)    R0        187
    I17(3)    R18       17
    I17(3)    R30       1
    I18(3)    OBJ       157
    I18(3)    R0        -151
    I18(3)    R19       9
    I18(3)    R30       1
    I19(3)    OBJ       195
    I19(3)    R0        113
    I19(3)    R20       9
    I19(3)    R30       1
    I20(3)    OBJ       52
    I20(3)    R0        -197
    I20(3)    R21       11
    I20(3)    R30       1
    I21(3)    OBJ       -44
    I21(3)    R0        80
    I21(3)    R22       17
    I21(3)    R30       1
    I22(3)    OBJ       198
    I22(3)    R0        -157
    I22(3)    R23       1
    I22(3)    R30       1
    I23(3)    OBJ       -150
    I23(3)    R0        -124
    I23(3)    R24       1
    I23(3)    R30       1
    I24(3)    OBJ       -132
    I24(3)    R0        -174
    I24(3)    R25       8
    I24(3)    R30       1
    I25(3)    OBJ       15
    I25(3)    R0        108
    I25(3)    R26       1
    I25(3)    R30       1
    I26(3)    OBJ       41
    I26(3)    R0        136
    I26(3)    R27       15
    I26(3)    R30       1
    I27(3)    OBJ       152
    I27(3)    R0        -91
    I27(3)    R28       16
    I27(3)    R30       1
    MARKER    'MARKER'                 'INTEND'
    C28(29)   OBJ       3
    C28(29)   R0        9
    C28(29)   R1        14
    C28(29)   R2        14
    C28(29)   R3        7
    C28(29)   R4        6
    C28(29)   R5        18
    C28(29)   R6        -1
    C28(29)   R7        14
    C28(29)   R8        18
    C28(29)   R9        -1
    C28(29)   R10       12
    C28(29)   R11       12
    C28(29)   R12       5
    C28(29)   R13       10
    C28(29)   R14       7
    C28(29)   R15       10
    C28(29)   R16       6
    C28(29)   R17       3
    C28(29)   R18       -1
    C28(29)   R19       16
    C28(29)   R20       19
    C28(29)   R22       18
    C28(29)   R23       11
    C28(29)   R24       9
    C28(29)   R25       17
    C28(29)   R26       6
    C28(29)   R27       14
    C28(29)   R28       9
    C28(29)   R29       15
    C29(28)   OBJ       -1
    C29(28)   R0        -1
    C29(28)   R1        -1
    C29(28)   R2        1
    C29(28)   R3        8
    C29(28)   R4        3
    C29(28)   R5        5
    C29(28)   R6        1
    C29(28)   R7        14
    C29(28)   R8        9
    C29(28)   R10       2
    C29(28)   R11       5
    C29(28)   R12       1
    C29(28)   R13       6
    C29(28)   R14       10
    C29(28)   R15       19
    C29(28)   R16       6
    C29(28)   R17       15
    C29(28)   R18       12
    C29(28)   R19       6
    C29(28)   R20       -1
    C29(28)   R21       8
    C29(28)   R23       6
    C29(28)   R24       -1
    C29(28)   R25       5
    C29(28)   R26       6
    C29(28)   R27       4
    C29(28)   R28       19
    C29(28)   R29       4
    C30(1)    R1        1
    C31(1)    R2        1
    C32(1)    R3        1
    C33(1)    R4        1
    C34(1)    R5        1
    C35(1)    R6        1
    C36(1)    R7        1
    C37(1)    R8        1
    C38(1)    R9        1
    C39(1)    R10       1
    C40(1)    R11       1
    C41(1)    R12       1
    C42(1)    R13       1
    C43(1)    R14       1
    C44(1)    R15       1
    C45(1)    R16       1
    C46(1)    R17       1
    C47(1)    R18       1
    C48(1)    R19       1
    C49(1)    R20       1
    C50(1)    R21       1
    C51(1)    R22       1
    C52(1)    R23       1
    C53(1)    R24       1
    C54(1)    R25       1
    C55(1)    R26       1
    C56(1)    R27       1
    C57(1)    R28       1
    C58(1)    R29       1
    C59(1)    R30       1
RHS
    RHS1      R0        3.6168421052631578e+02
    RHS1      R1        63
    RHS1      R2        99
    RHS1      R3        83
    RHS1      R4        70
    RHS1      R5        60
    RHS1      R6        82
    RHS1      R7        75
    RHS1      R8        71
    RHS1      R9        89
    RHS1      R10       82
    RHS1      R11       69
    RHS1      R12       75
    RHS1      R13       99
    RHS1      R14       64
    RHS1      R15       63
    RHS1      R16       70
    RHS1      R17       93
    RHS1      R18       56
    RHS1      R19       63
    RHS1      R20       65
    RHS1      R21       74
    RHS1      R22       59
    RHS1      R23       52
    RHS1      R24       57
    RHS1      R25       55
    RHS1      R26       86
    RHS1      R27       87
    RHS1      R28       71
    RHS1      R29       90
    RHS1      R30       9
BOUNDS
 UP BND1      I0(3)     1
 UP BND1      I1(3)     1
 UP BND1      I2(3)     1
 UP BND1      I3(3)     1
 UP BND1      I4(3)     1
 UP BND1      I5(3)     1
 UP BND1      I6(3)     1
 UP BND1      I7(3)     1
 UP BND1      I8(3)     1
 UP BND1      I9(3)     1
 UP BND1      I10(3)    1
 UP BND1      I11(3)    1
 UP BND1      I12(3)    1
 UP BND1      I13(3)    1
 UP BND1      I14(3)    1
 UP BND1      I15(3)    1
 UP BND1      I16(3)    1
 UP BND1      I17(3)    1
 UP BND1      I18(3)    1
 UP BND1      I19(3)    1
 UP BND1      I20(3)    1
 UP BND1      I21(3)    1
 UP BND1      I22(3)    1
 UP BND1      I23(3)    1
 UP BND1      I24(3)    1
 UP BND1      I25(3)    1
 UP BND1      I26(3)    1
 UP BND1      I27(3)    1
ENDATA
